write_xyz = .true.
write_hr=true
bands_plot =  .true.
write_u_matrices=.ture
guiding_centres=T
num_bands = 128
num_wann = 16
dis_num_iter=1000
dis_win_min=-8.5
dis_win_max=36
dis_froz_min=-8.5
dis_froz_max=7
Num_iter=0

begin projections
Bi:s,p
end projections

begin kpoint_path
F_1   0.000000  0.500000 -0.500000 Gamma 0.000000  0.000000  0.000000
Gamma     0.000000  0.000000  0.000000 L 0.000000  0.500000  0.000000
L   0.000000  0.500000  0.000000 T_1 0.500000  0.500000 -0.500000
T 0.500000  0.500000  0.500000 Gamma 0.000000  0.000000  0.000000
Gamma 0.000000  0.000000  0.000000 F_2 0.500000  0.000000  0.500000
 end kpoint_path
bands_num_points 101



spinors = .true.

begin unit_cell_cart
     2.3174499     1.3379803     4.0879963
    -2.3174499     1.3379803     4.0879963
     0.0000000    -2.6759607     4.0879963
end unit_cell_cart

begin atoms_cart
Bi       0.0000000     0.0000000     9.4126114
Bi       0.0000000     0.0000000     2.8513774
end atoms_cart

mp_grid =     7     7     7

begin kpoints
      0.000000000000      0.000000000000      0.000000000000
      0.142857142857      0.000000000000      0.000000000000
      0.285714285714      0.000000000000     -0.000000000000
      0.428571428571      0.000000000000      0.000000000000
     -0.428571428571     -0.000000000000     -0.000000000000
     -0.285714285714     -0.000000000000      0.000000000000
     -0.142857142857     -0.000000000000      0.000000000000
      0.000000000000      0.142857142857      0.000000000000
      0.142857142857      0.142857142857      0.000000000000
      0.285714285714      0.142857142857     -0.000000000000
      0.428571428571      0.142857142857     -0.000000000000
     -0.428571428571      0.142857142857      0.000000000000
     -0.285714285714      0.142857142857      0.000000000000
     -0.142857142857      0.142857142857      0.000000000000
      0.000000000000      0.285714285714     -0.000000000000
      0.142857142857      0.285714285714     -0.000000000000
      0.285714285714      0.285714285714     -0.000000000000
      0.428571428571      0.285714285714     -0.000000000000
     -0.428571428571      0.285714285714      0.000000000000
     -0.285714285714      0.285714285714      0.000000000000
     -0.142857142857      0.285714285714     -0.000000000000
      0.000000000000      0.428571428571      0.000000000000
      0.142857142857      0.428571428571     -0.000000000000
      0.285714285714      0.428571428571     -0.000000000000
      0.428571428571      0.428571428571      0.000000000000
     -0.428571428571      0.428571428571      0.000000000000
     -0.285714285714      0.428571428571      0.000000000000
     -0.142857142857      0.428571428571      0.000000000000
     -0.000000000000     -0.428571428571     -0.000000000000
      0.142857142857     -0.428571428571      0.000000000000
      0.285714285714     -0.428571428571      0.000000000000
      0.428571428571     -0.428571428571      0.000000000000
     -0.428571428571     -0.428571428571      0.000000000000
     -0.285714285714     -0.428571428571      0.000000000000
     -0.142857142857     -0.428571428571      0.000000000000
     -0.000000000000     -0.285714285714      0.000000000000
      0.142857142857     -0.285714285714      0.000000000000
      0.285714285714     -0.285714285714      0.000000000000
      0.428571428571     -0.285714285714      0.000000000000
     -0.428571428571     -0.285714285714      0.000000000000
     -0.285714285714     -0.285714285714      0.000000000000
     -0.142857142857     -0.285714285714      0.000000000000
     -0.000000000000     -0.142857142857      0.000000000000
      0.142857142857     -0.142857142857      0.000000000000
      0.285714285714     -0.142857142857     -0.000000000000
      0.428571428571     -0.142857142857      0.000000000000
     -0.428571428571     -0.142857142857      0.000000000000
     -0.285714285714     -0.142857142857      0.000000000000
     -0.142857142857     -0.142857142857      0.000000000000
      0.000000000000      0.000000000000      0.142857142857
      0.142857142857      0.000000000000      0.142857142857
      0.285714285714      0.000000000000      0.142857142857
      0.428571428571      0.000000000000      0.142857142857
     -0.428571428571     -0.000000000000      0.142857142857
     -0.285714285714     -0.000000000000      0.142857142857
     -0.142857142857     -0.000000000000      0.142857142857
      0.000000000000      0.142857142857      0.142857142857
      0.142857142857      0.142857142857      0.142857142857
      0.285714285714      0.142857142857      0.142857142857
      0.428571428571      0.142857142857      0.142857142857
     -0.428571428571      0.142857142857      0.142857142857
     -0.285714285714      0.142857142857      0.142857142857
     -0.142857142857      0.142857142857      0.142857142857
      0.000000000000      0.285714285714      0.142857142857
      0.142857142857      0.285714285714      0.142857142857
      0.285714285714      0.285714285714      0.142857142857
      0.428571428571      0.285714285714      0.142857142857
     -0.428571428571      0.285714285714      0.142857142857
     -0.285714285714      0.285714285714      0.142857142857
     -0.142857142857      0.285714285714      0.142857142857
      0.000000000000      0.428571428571      0.142857142857
      0.142857142857      0.428571428571      0.142857142857
      0.285714285714      0.428571428571      0.142857142857
      0.428571428571      0.428571428571      0.142857142857
     -0.428571428571      0.428571428571      0.142857142857
     -0.285714285714      0.428571428571      0.142857142857
     -0.142857142857      0.428571428571      0.142857142857
     -0.000000000000     -0.428571428571      0.142857142857
      0.142857142857     -0.428571428571      0.142857142857
      0.285714285714     -0.428571428571      0.142857142857
      0.428571428571     -0.428571428571      0.142857142857
     -0.428571428571     -0.428571428571      0.142857142857
     -0.285714285714     -0.428571428571      0.142857142857
     -0.142857142857     -0.428571428571      0.142857142857
     -0.000000000000     -0.285714285714      0.142857142857
      0.142857142857     -0.285714285714      0.142857142857
      0.285714285714     -0.285714285714      0.142857142857
      0.428571428571     -0.285714285714      0.142857142857
     -0.428571428571     -0.285714285714      0.142857142857
     -0.285714285714     -0.285714285714      0.142857142857
     -0.142857142857     -0.285714285714      0.142857142857
     -0.000000000000     -0.142857142857      0.142857142857
      0.142857142857     -0.142857142857      0.142857142857
      0.285714285714     -0.142857142857      0.142857142857
      0.428571428571     -0.142857142857      0.142857142857
     -0.428571428571     -0.142857142857      0.142857142857
     -0.285714285714     -0.142857142857      0.142857142857
     -0.142857142857     -0.142857142857      0.142857142857
     -0.000000000000     -0.000000000000      0.285714285714
      0.142857142857      0.000000000000      0.285714285714
      0.285714285714     -0.000000000000      0.285714285714
      0.428571428571      0.000000000000      0.285714285714
     -0.428571428571     -0.000000000000      0.285714285714
     -0.285714285714     -0.000000000000      0.285714285714
     -0.142857142857     -0.000000000000      0.285714285714
      0.000000000000      0.142857142857      0.285714285714
      0.142857142857      0.142857142857      0.285714285714
      0.285714285714      0.142857142857      0.285714285714
      0.428571428571      0.142857142857      0.285714285714
     -0.428571428571      0.142857142857      0.285714285714
     -0.285714285714      0.142857142857      0.285714285714
     -0.142857142857      0.142857142857      0.285714285714
     -0.000000000000      0.285714285714      0.285714285714
      0.142857142857      0.285714285714      0.285714285714
      0.285714285714      0.285714285714      0.285714285714
      0.428571428571      0.285714285714      0.285714285714
     -0.428571428571      0.285714285714      0.285714285714
     -0.285714285714      0.285714285714      0.285714285714
     -0.142857142857      0.285714285714      0.285714285714
      0.000000000000      0.428571428571      0.285714285714
      0.142857142857      0.428571428571      0.285714285714
      0.285714285714      0.428571428571      0.285714285714
      0.428571428571      0.428571428571      0.285714285714
     -0.428571428571      0.428571428571      0.285714285714
     -0.285714285714      0.428571428571      0.285714285714
     -0.142857142857      0.428571428571      0.285714285714
     -0.000000000000     -0.428571428571      0.285714285714
      0.142857142857     -0.428571428571      0.285714285714
      0.285714285714     -0.428571428571      0.285714285714
      0.428571428571     -0.428571428571      0.285714285714
     -0.428571428571     -0.428571428571      0.285714285714
     -0.285714285714     -0.428571428571      0.285714285714
     -0.142857142857     -0.428571428571      0.285714285714
     -0.000000000000     -0.285714285714      0.285714285714
      0.142857142857     -0.285714285714      0.285714285714
      0.285714285714     -0.285714285714      0.285714285714
      0.428571428571     -0.285714285714      0.285714285714
     -0.428571428571     -0.285714285714      0.285714285714
     -0.285714285714     -0.285714285714      0.285714285714
     -0.142857142857     -0.285714285714      0.285714285714
     -0.000000000000     -0.142857142857      0.285714285714
      0.142857142857     -0.142857142857      0.285714285714
      0.285714285714     -0.142857142857      0.285714285714
      0.428571428571     -0.142857142857      0.285714285714
     -0.428571428571     -0.142857142857      0.285714285714
     -0.285714285714     -0.142857142857      0.285714285714
     -0.142857142857     -0.142857142857      0.285714285714
      0.000000000000      0.000000000000      0.428571428571
      0.142857142857      0.000000000000      0.428571428571
      0.285714285714      0.000000000000      0.428571428571
      0.428571428571      0.000000000000      0.428571428571
     -0.428571428571     -0.000000000000      0.428571428571
     -0.285714285714      0.000000000000      0.428571428571
     -0.142857142857     -0.000000000000      0.428571428571
      0.000000000000      0.142857142857      0.428571428571
      0.142857142857      0.142857142857      0.428571428571
      0.285714285714      0.142857142857      0.428571428571
      0.428571428571      0.142857142857      0.428571428571
     -0.428571428571      0.142857142857      0.428571428571
     -0.285714285714      0.142857142857      0.428571428571
     -0.142857142857      0.142857142857      0.428571428571
      0.000000000000      0.285714285714      0.428571428571
      0.142857142857      0.285714285714      0.428571428571
      0.285714285714      0.285714285714      0.428571428571
      0.428571428571      0.285714285714      0.428571428571
     -0.428571428571      0.285714285714      0.428571428571
     -0.285714285714      0.285714285714      0.428571428571
     -0.142857142857      0.285714285714      0.428571428571
      0.000000000000      0.428571428571      0.428571428571
      0.142857142857      0.428571428571      0.428571428571
      0.285714285714      0.428571428571      0.428571428571
      0.428571428571      0.428571428571      0.428571428571
     -0.428571428571      0.428571428571      0.428571428571
     -0.285714285714      0.428571428571      0.428571428571
     -0.142857142857      0.428571428571      0.428571428571
     -0.000000000000     -0.428571428571      0.428571428571
      0.142857142857     -0.428571428571      0.428571428571
      0.285714285714     -0.428571428571      0.428571428571
      0.428571428571     -0.428571428571      0.428571428571
     -0.428571428571     -0.428571428571      0.428571428571
     -0.285714285714     -0.428571428571      0.428571428571
     -0.142857142857     -0.428571428571      0.428571428571
      0.000000000000     -0.285714285714      0.428571428571
      0.142857142857     -0.285714285714      0.428571428571
      0.285714285714     -0.285714285714      0.428571428571
      0.428571428571     -0.285714285714      0.428571428571
     -0.428571428571     -0.285714285714      0.428571428571
     -0.285714285714     -0.285714285714      0.428571428571
     -0.142857142857     -0.285714285714      0.428571428571
     -0.000000000000     -0.142857142857      0.428571428571
      0.142857142857     -0.142857142857      0.428571428571
      0.285714285714     -0.142857142857      0.428571428571
      0.428571428571     -0.142857142857      0.428571428571
     -0.428571428571     -0.142857142857      0.428571428571
     -0.285714285714     -0.142857142857      0.428571428571
     -0.142857142857     -0.142857142857      0.428571428571
      0.000000000000      0.000000000000     -0.428571428571
      0.142857142857      0.000000000000     -0.428571428571
      0.285714285714     -0.000000000000     -0.428571428571
      0.428571428571      0.000000000000     -0.428571428571
     -0.428571428571      0.000000000000     -0.428571428571
     -0.285714285714      0.000000000000     -0.428571428571
     -0.142857142857      0.000000000000     -0.428571428571
      0.000000000000      0.142857142857     -0.428571428571
      0.142857142857      0.142857142857     -0.428571428571
      0.285714285714      0.142857142857     -0.428571428571
      0.428571428571      0.142857142857     -0.428571428571
     -0.428571428571      0.142857142857     -0.428571428571
     -0.285714285714      0.142857142857     -0.428571428571
     -0.142857142857      0.142857142857     -0.428571428571
     -0.000000000000      0.285714285714     -0.428571428571
      0.142857142857      0.285714285714     -0.428571428571
      0.285714285714      0.285714285714     -0.428571428571
      0.428571428571      0.285714285714     -0.428571428571
     -0.428571428571      0.285714285714     -0.428571428571
     -0.285714285714      0.285714285714     -0.428571428571
     -0.142857142857      0.285714285714     -0.428571428571
      0.000000000000      0.428571428571     -0.428571428571
      0.142857142857      0.428571428571     -0.428571428571
      0.285714285714      0.428571428571     -0.428571428571
      0.428571428571      0.428571428571     -0.428571428571
     -0.428571428571      0.428571428571     -0.428571428571
     -0.285714285714      0.428571428571     -0.428571428571
     -0.142857142857      0.428571428571     -0.428571428571
      0.000000000000     -0.428571428571     -0.428571428571
      0.142857142857     -0.428571428571     -0.428571428571
      0.285714285714     -0.428571428571     -0.428571428571
      0.428571428571     -0.428571428571     -0.428571428571
     -0.428571428571     -0.428571428571     -0.428571428571
     -0.285714285714     -0.428571428571     -0.428571428571
     -0.142857142857     -0.428571428571     -0.428571428571
      0.000000000000     -0.285714285714     -0.428571428571
      0.142857142857     -0.285714285714     -0.428571428571
      0.285714285714     -0.285714285714     -0.428571428571
      0.428571428571     -0.285714285714     -0.428571428571
     -0.428571428571     -0.285714285714     -0.428571428571
     -0.285714285714     -0.285714285714     -0.428571428571
     -0.142857142857     -0.285714285714     -0.428571428571
      0.000000000000     -0.142857142857     -0.428571428571
      0.142857142857     -0.142857142857     -0.428571428571
      0.285714285714     -0.142857142857     -0.428571428571
      0.428571428571     -0.142857142857     -0.428571428571
     -0.428571428571     -0.142857142857     -0.428571428571
     -0.285714285714     -0.142857142857     -0.428571428571
     -0.142857142857     -0.142857142857     -0.428571428571
      0.000000000000      0.000000000000     -0.285714285714
      0.142857142857      0.000000000000     -0.285714285714
      0.285714285714      0.000000000000     -0.285714285714
      0.428571428571      0.000000000000     -0.285714285714
     -0.428571428571     -0.000000000000     -0.285714285714
     -0.285714285714      0.000000000000     -0.285714285714
     -0.142857142857      0.000000000000     -0.285714285714
      0.000000000000      0.142857142857     -0.285714285714
      0.142857142857      0.142857142857     -0.285714285714
      0.285714285714      0.142857142857     -0.285714285714
      0.428571428571      0.142857142857     -0.285714285714
     -0.428571428571      0.142857142857     -0.285714285714
     -0.285714285714      0.142857142857     -0.285714285714
     -0.142857142857      0.142857142857     -0.285714285714
      0.000000000000      0.285714285714     -0.285714285714
      0.142857142857      0.285714285714     -0.285714285714
      0.285714285714      0.285714285714     -0.285714285714
      0.428571428571      0.285714285714     -0.285714285714
     -0.428571428571      0.285714285714     -0.285714285714
     -0.285714285714      0.285714285714     -0.285714285714
     -0.142857142857      0.285714285714     -0.285714285714
      0.000000000000      0.428571428571     -0.285714285714
      0.142857142857      0.428571428571     -0.285714285714
      0.285714285714      0.428571428571     -0.285714285714
      0.428571428571      0.428571428571     -0.285714285714
     -0.428571428571      0.428571428571     -0.285714285714
     -0.285714285714      0.428571428571     -0.285714285714
     -0.142857142857      0.428571428571     -0.285714285714
     -0.000000000000     -0.428571428571     -0.285714285714
      0.142857142857     -0.428571428571     -0.285714285714
      0.285714285714     -0.428571428571     -0.285714285714
      0.428571428571     -0.428571428571     -0.285714285714
     -0.428571428571     -0.428571428571     -0.285714285714
     -0.285714285714     -0.428571428571     -0.285714285714
     -0.142857142857     -0.428571428571     -0.285714285714
      0.000000000000     -0.285714285714     -0.285714285714
      0.142857142857     -0.285714285714     -0.285714285714
      0.285714285714     -0.285714285714     -0.285714285714
      0.428571428571     -0.285714285714     -0.285714285714
     -0.428571428571     -0.285714285714     -0.285714285714
     -0.285714285714     -0.285714285714     -0.285714285714
     -0.142857142857     -0.285714285714     -0.285714285714
      0.000000000000     -0.142857142857     -0.285714285714
      0.142857142857     -0.142857142857     -0.285714285714
      0.285714285714     -0.142857142857     -0.285714285714
      0.428571428571     -0.142857142857     -0.285714285714
     -0.428571428571     -0.142857142857     -0.285714285714
     -0.285714285714     -0.142857142857     -0.285714285714
     -0.142857142857     -0.142857142857     -0.285714285714
     -0.000000000000     -0.000000000000     -0.142857142857
      0.142857142857      0.000000000000     -0.142857142857
      0.285714285714      0.000000000000     -0.142857142857
      0.428571428571      0.000000000000     -0.142857142857
     -0.428571428571     -0.000000000000     -0.142857142857
     -0.285714285714     -0.000000000000     -0.142857142857
     -0.142857142857     -0.000000000000     -0.142857142857
      0.000000000000      0.142857142857     -0.142857142857
      0.142857142857      0.142857142857     -0.142857142857
      0.285714285714      0.142857142857     -0.142857142857
      0.428571428571      0.142857142857     -0.142857142857
     -0.428571428571      0.142857142857     -0.142857142857
     -0.285714285714      0.142857142857     -0.142857142857
     -0.142857142857      0.142857142857     -0.142857142857
      0.000000000000      0.285714285714     -0.142857142857
      0.142857142857      0.285714285714     -0.142857142857
      0.285714285714      0.285714285714     -0.142857142857
      0.428571428571      0.285714285714     -0.142857142857
     -0.428571428571      0.285714285714     -0.142857142857
     -0.285714285714      0.285714285714     -0.142857142857
     -0.142857142857      0.285714285714     -0.142857142857
      0.000000000000      0.428571428571     -0.142857142857
      0.142857142857      0.428571428571     -0.142857142857
      0.285714285714      0.428571428571     -0.142857142857
      0.428571428571      0.428571428571     -0.142857142857
     -0.428571428571      0.428571428571     -0.142857142857
     -0.285714285714      0.428571428571     -0.142857142857
     -0.142857142857      0.428571428571     -0.142857142857
     -0.000000000000     -0.428571428571     -0.142857142857
      0.142857142857     -0.428571428571     -0.142857142857
      0.285714285714     -0.428571428571     -0.142857142857
      0.428571428571     -0.428571428571     -0.142857142857
     -0.428571428571     -0.428571428571     -0.142857142857
     -0.285714285714     -0.428571428571     -0.142857142857
     -0.142857142857     -0.428571428571     -0.142857142857
     -0.000000000000     -0.285714285714     -0.142857142857
      0.142857142857     -0.285714285714     -0.142857142857
      0.285714285714     -0.285714285714     -0.142857142857
      0.428571428571     -0.285714285714     -0.142857142857
     -0.428571428571     -0.285714285714     -0.142857142857
     -0.285714285714     -0.285714285714     -0.142857142857
     -0.142857142857     -0.285714285714     -0.142857142857
     -0.000000000000     -0.142857142857     -0.142857142857
      0.142857142857     -0.142857142857     -0.142857142857
      0.285714285714     -0.142857142857     -0.142857142857
      0.428571428571     -0.142857142857     -0.142857142857
     -0.428571428571     -0.142857142857     -0.142857142857
     -0.285714285714     -0.142857142857     -0.142857142857
     -0.142857142857     -0.142857142857     -0.142857142857
end kpoints
