fermi_energy =10.5732
shc_freq_scan = false
shc_alpha = 1
shc_beta = 2
shc_gamma = 3

kpath = true
kpath_task = shc
kpath_num_points=1000
adpt_smr=F #must set False when calculate shc

kslice = true
kslice_task = shc+fermi_lines
kslice_2dkmesh = 200
kslice_corner = 0.0  0.0  0.0
kslice_b1 =     0.5 -0.5  0.0
kslice_b2 =     0.5  0.5 -1.0

berry = true
berry_task = shc
berry_kmesh = 10 10 10
berry_curv_adpt_kmesh=3

write_xyz = .true.
write_hr=true
write_rmn=true
bands_plot =  .true.
guiding_centres=T
dis_num_iter=1000
dis_win_min=0.
dis_win_max=45
dis_froz_min=0.
dis_froz_max=17
Num_iter=0

num_wann =18 ! set to NBANDS by VASP
num_bands=64
begin kpoint_path
W        0.5000000000   0.2500000000   0.7500000000   L       0.5000000000   0.5000000000   0.5000000000              
L        0.5000000000   0.5000000000   0.5000000000   GAMMA   0.0000000000   0.0000000000   0.0000000000              
GAMMA    0.0000000000   0.0000000000   0.0000000000   X       0.5000000000   0.0000000000   0.5000000000              
X        0.5000000000   0.0000000000   0.5000000000   W       0.5000000000   0.2500000000   0.7500000000              
W        0.5000000000   0.2500000000   0.7500000000   GAMMA   0.0000000000   0.0000000000   0.0000000000              
 
end kpoint_path
bands_num_points 101
begin projections
Pt:s,p,d
end projections


spinors = .true.

begin unit_cell_cart
     0.0000000     1.9859354     1.9859354
     1.9859354     0.0000000     1.9859354
     1.9859354     1.9859354     0.0000000
end unit_cell_cart

begin atoms_cart
Pt       0.0000000     0.0000000     0.0000000
end atoms_cart

mp_grid =    11    11    11

begin kpoints
      0.000000000000      0.000000000000      0.000000000000
      0.090909090909      0.000000000000     -0.000000000000
      0.181818181818      0.000000000000     -0.000000000000
      0.272727272727      0.000000000000     -0.000000000000
      0.363636363636      0.000000000000     -0.000000000000
      0.454545454545     -0.000000000000      0.000000000000
     -0.454545454545     -0.000000000000     -0.000000000000
     -0.363636363636     -0.000000000000      0.000000000000
     -0.272727272727     -0.000000000000      0.000000000000
     -0.181818181818     -0.000000000000      0.000000000000
     -0.090909090909     -0.000000000000      0.000000000000
      0.000000000000      0.090909090909      0.000000000000
      0.090909090909      0.090909090909      0.000000000000
      0.181818181818      0.090909090909      0.000000000000
      0.272727272727      0.090909090909      0.000000000000
      0.363636363636      0.090909090909     -0.000000000000
      0.454545454545      0.090909090909      0.000000000000
     -0.454545454545      0.090909090909      0.000000000000
     -0.363636363636      0.090909090909     -0.000000000000
     -0.272727272727      0.090909090909      0.000000000000
     -0.181818181818      0.090909090909      0.000000000000
     -0.090909090909      0.090909090909      0.000000000000
      0.000000000000      0.181818181818      0.000000000000
      0.090909090909      0.181818181818      0.000000000000
      0.181818181818      0.181818181818      0.000000000000
      0.272727272727      0.181818181818      0.000000000000
      0.363636363636      0.181818181818      0.000000000000
      0.454545454545      0.181818181818     -0.000000000000
     -0.454545454545      0.181818181818     -0.000000000000
     -0.363636363636      0.181818181818      0.000000000000
     -0.272727272727      0.181818181818      0.000000000000
     -0.181818181818      0.181818181818      0.000000000000
     -0.090909090909      0.181818181818      0.000000000000
      0.000000000000      0.272727272727      0.000000000000
      0.090909090909      0.272727272727      0.000000000000
      0.181818181818      0.272727272727      0.000000000000
      0.272727272727      0.272727272727      0.000000000000
      0.363636363636      0.272727272727      0.000000000000
      0.454545454545      0.272727272727      0.000000000000
     -0.454545454545      0.272727272727      0.000000000000
     -0.363636363636      0.272727272727     -0.000000000000
     -0.272727272727      0.272727272727      0.000000000000
     -0.181818181818      0.272727272727      0.000000000000
     -0.090909090909      0.272727272727      0.000000000000
      0.000000000000      0.363636363636      0.000000000000
      0.090909090909      0.363636363636      0.000000000000
      0.181818181818      0.363636363636      0.000000000000
      0.272727272727      0.363636363636      0.000000000000
      0.363636363636      0.363636363636      0.000000000000
      0.454545454545      0.363636363636      0.000000000000
     -0.454545454545      0.363636363636     -0.000000000000
     -0.363636363636      0.363636363636      0.000000000000
     -0.272727272727      0.363636363636     -0.000000000000
     -0.181818181818      0.363636363636      0.000000000000
     -0.090909090909      0.363636363636      0.000000000000
      0.000000000000      0.454545454545      0.000000000000
      0.090909090909      0.454545454545      0.000000000000
      0.181818181818      0.454545454545      0.000000000000
      0.272727272727      0.454545454545      0.000000000000
      0.363636363636      0.454545454545      0.000000000000
      0.454545454545      0.454545454545      0.000000000000
     -0.454545454545      0.454545454545      0.000000000000
     -0.363636363636      0.454545454545     -0.000000000000
     -0.272727272727      0.454545454545      0.000000000000
     -0.181818181818      0.454545454545     -0.000000000000
     -0.090909090909      0.454545454545      0.000000000000
      0.000000000000     -0.454545454545     -0.000000000000
      0.090909090909     -0.454545454545     -0.000000000000
      0.181818181818     -0.454545454545      0.000000000000
      0.272727272727     -0.454545454545     -0.000000000000
      0.363636363636     -0.454545454545      0.000000000000
      0.454545454545     -0.454545454545     -0.000000000000
     -0.454545454545     -0.454545454545     -0.000000000000
     -0.363636363636     -0.454545454545     -0.000000000000
     -0.272727272727     -0.454545454545     -0.000000000000
     -0.181818181818     -0.454545454545     -0.000000000000
     -0.090909090909     -0.454545454545     -0.000000000000
     -0.000000000000     -0.363636363636     -0.000000000000
      0.090909090909     -0.363636363636     -0.000000000000
      0.181818181818     -0.363636363636     -0.000000000000
      0.272727272727     -0.363636363636      0.000000000000
      0.363636363636     -0.363636363636     -0.000000000000
      0.454545454545     -0.363636363636      0.000000000000
     -0.454545454545     -0.363636363636     -0.000000000000
     -0.363636363636     -0.363636363636     -0.000000000000
     -0.272727272727     -0.363636363636     -0.000000000000
     -0.181818181818     -0.363636363636     -0.000000000000
     -0.090909090909     -0.363636363636     -0.000000000000
     -0.000000000000     -0.272727272727     -0.000000000000
      0.090909090909     -0.272727272727     -0.000000000000
      0.181818181818     -0.272727272727     -0.000000000000
      0.272727272727     -0.272727272727     -0.000000000000
      0.363636363636     -0.272727272727      0.000000000000
      0.454545454545     -0.272727272727     -0.000000000000
     -0.454545454545     -0.272727272727     -0.000000000000
     -0.363636363636     -0.272727272727     -0.000000000000
     -0.272727272727     -0.272727272727     -0.000000000000
     -0.181818181818     -0.272727272727     -0.000000000000
     -0.090909090909     -0.272727272727     -0.000000000000
     -0.000000000000     -0.181818181818     -0.000000000000
      0.090909090909     -0.181818181818     -0.000000000000
      0.181818181818     -0.181818181818     -0.000000000000
      0.272727272727     -0.181818181818     -0.000000000000
      0.363636363636     -0.181818181818     -0.000000000000
      0.454545454545     -0.181818181818      0.000000000000
     -0.454545454545     -0.181818181818      0.000000000000
     -0.363636363636     -0.181818181818     -0.000000000000
     -0.272727272727     -0.181818181818     -0.000000000000
     -0.181818181818     -0.181818181818     -0.000000000000
     -0.090909090909     -0.181818181818     -0.000000000000
     -0.000000000000     -0.090909090909     -0.000000000000
      0.090909090909     -0.090909090909     -0.000000000000
      0.181818181818     -0.090909090909     -0.000000000000
      0.272727272727     -0.090909090909     -0.000000000000
      0.363636363636     -0.090909090909      0.000000000000
      0.454545454545     -0.090909090909     -0.000000000000
     -0.454545454545     -0.090909090909     -0.000000000000
     -0.363636363636     -0.090909090909      0.000000000000
     -0.272727272727     -0.090909090909     -0.000000000000
     -0.181818181818     -0.090909090909     -0.000000000000
     -0.090909090909     -0.090909090909     -0.000000000000
     -0.000000000000     -0.000000000000      0.090909090909
      0.090909090909      0.000000000000      0.090909090909
      0.181818181818      0.000000000000      0.090909090909
      0.272727272727      0.000000000000      0.090909090909
      0.363636363636      0.000000000000      0.090909090909
      0.454545454545      0.000000000000      0.090909090909
     -0.454545454545     -0.000000000000      0.090909090909
     -0.363636363636     -0.000000000000      0.090909090909
     -0.272727272727     -0.000000000000      0.090909090909
     -0.181818181818     -0.000000000000      0.090909090909
     -0.090909090909     -0.000000000000      0.090909090909
      0.000000000000      0.090909090909      0.090909090909
      0.090909090909      0.090909090909      0.090909090909
      0.181818181818      0.090909090909      0.090909090909
      0.272727272727      0.090909090909      0.090909090909
      0.363636363636      0.090909090909      0.090909090909
      0.454545454545      0.090909090909      0.090909090909
     -0.454545454545      0.090909090909      0.090909090909
     -0.363636363636      0.090909090909      0.090909090909
     -0.272727272727      0.090909090909      0.090909090909
     -0.181818181818      0.090909090909      0.090909090909
     -0.090909090909      0.090909090909      0.090909090909
      0.000000000000      0.181818181818      0.090909090909
      0.090909090909      0.181818181818      0.090909090909
      0.181818181818      0.181818181818      0.090909090909
      0.272727272727      0.181818181818      0.090909090909
      0.363636363636      0.181818181818      0.090909090909
      0.454545454545      0.181818181818      0.090909090909
     -0.454545454545      0.181818181818      0.090909090909
     -0.363636363636      0.181818181818      0.090909090909
     -0.272727272727      0.181818181818      0.090909090909
     -0.181818181818      0.181818181818      0.090909090909
     -0.090909090909      0.181818181818      0.090909090909
      0.000000000000      0.272727272727      0.090909090909
      0.090909090909      0.272727272727      0.090909090909
      0.181818181818      0.272727272727      0.090909090909
      0.272727272727      0.272727272727      0.090909090909
      0.363636363636      0.272727272727      0.090909090909
      0.454545454545      0.272727272727      0.090909090909
     -0.454545454545      0.272727272727      0.090909090909
     -0.363636363636      0.272727272727      0.090909090909
     -0.272727272727      0.272727272727      0.090909090909
     -0.181818181818      0.272727272727      0.090909090909
     -0.090909090909      0.272727272727      0.090909090909
      0.000000000000      0.363636363636      0.090909090909
      0.090909090909      0.363636363636      0.090909090909
      0.181818181818      0.363636363636      0.090909090909
      0.272727272727      0.363636363636      0.090909090909
      0.363636363636      0.363636363636      0.090909090909
      0.454545454545      0.363636363636      0.090909090909
     -0.454545454545      0.363636363636      0.090909090909
     -0.363636363636      0.363636363636      0.090909090909
     -0.272727272727      0.363636363636      0.090909090909
     -0.181818181818      0.363636363636      0.090909090909
     -0.090909090909      0.363636363636      0.090909090909
      0.000000000000      0.454545454545      0.090909090909
      0.090909090909      0.454545454545      0.090909090909
      0.181818181818      0.454545454545      0.090909090909
      0.272727272727      0.454545454545      0.090909090909
      0.363636363636      0.454545454545      0.090909090909
      0.454545454545      0.454545454545      0.090909090909
     -0.454545454545      0.454545454545      0.090909090909
     -0.363636363636      0.454545454545      0.090909090909
     -0.272727272727      0.454545454545      0.090909090909
     -0.181818181818      0.454545454545      0.090909090909
     -0.090909090909      0.454545454545      0.090909090909
     -0.000000000000     -0.454545454545      0.090909090909
      0.090909090909     -0.454545454545      0.090909090909
      0.181818181818     -0.454545454545      0.090909090909
      0.272727272727     -0.454545454545      0.090909090909
      0.363636363636     -0.454545454545      0.090909090909
      0.454545454545     -0.454545454545      0.090909090909
     -0.454545454545     -0.454545454545      0.090909090909
     -0.363636363636     -0.454545454545      0.090909090909
     -0.272727272727     -0.454545454545      0.090909090909
     -0.181818181818     -0.454545454545      0.090909090909
     -0.090909090909     -0.454545454545      0.090909090909
     -0.000000000000     -0.363636363636      0.090909090909
      0.090909090909     -0.363636363636      0.090909090909
      0.181818181818     -0.363636363636      0.090909090909
      0.272727272727     -0.363636363636      0.090909090909
      0.363636363636     -0.363636363636      0.090909090909
      0.454545454545     -0.363636363636      0.090909090909
     -0.454545454545     -0.363636363636      0.090909090909
     -0.363636363636     -0.363636363636      0.090909090909
     -0.272727272727     -0.363636363636      0.090909090909
     -0.181818181818     -0.363636363636      0.090909090909
     -0.090909090909     -0.363636363636      0.090909090909
     -0.000000000000     -0.272727272727      0.090909090909
      0.090909090909     -0.272727272727      0.090909090909
      0.181818181818     -0.272727272727      0.090909090909
      0.272727272727     -0.272727272727      0.090909090909
      0.363636363636     -0.272727272727      0.090909090909
      0.454545454545     -0.272727272727      0.090909090909
     -0.454545454545     -0.272727272727      0.090909090909
     -0.363636363636     -0.272727272727      0.090909090909
     -0.272727272727     -0.272727272727      0.090909090909
     -0.181818181818     -0.272727272727      0.090909090909
     -0.090909090909     -0.272727272727      0.090909090909
     -0.000000000000     -0.181818181818      0.090909090909
      0.090909090909     -0.181818181818      0.090909090909
      0.181818181818     -0.181818181818      0.090909090909
      0.272727272727     -0.181818181818      0.090909090909
      0.363636363636     -0.181818181818      0.090909090909
      0.454545454545     -0.181818181818      0.090909090909
     -0.454545454545     -0.181818181818      0.090909090909
     -0.363636363636     -0.181818181818      0.090909090909
     -0.272727272727     -0.181818181818      0.090909090909
     -0.181818181818     -0.181818181818      0.090909090909
     -0.090909090909     -0.181818181818      0.090909090909
     -0.000000000000     -0.090909090909      0.090909090909
      0.090909090909     -0.090909090909      0.090909090909
      0.181818181818     -0.090909090909      0.090909090909
      0.272727272727     -0.090909090909      0.090909090909
      0.363636363636     -0.090909090909      0.090909090909
      0.454545454545     -0.090909090909      0.090909090909
     -0.454545454545     -0.090909090909      0.090909090909
     -0.363636363636     -0.090909090909      0.090909090909
     -0.272727272727     -0.090909090909      0.090909090909
     -0.181818181818     -0.090909090909      0.090909090909
     -0.090909090909     -0.090909090909      0.090909090909
     -0.000000000000     -0.000000000000      0.181818181818
      0.090909090909      0.000000000000      0.181818181818
      0.181818181818      0.000000000000      0.181818181818
      0.272727272727      0.000000000000      0.181818181818
      0.363636363636      0.000000000000      0.181818181818
      0.454545454545      0.000000000000      0.181818181818
     -0.454545454545      0.000000000000      0.181818181818
     -0.363636363636     -0.000000000000      0.181818181818
     -0.272727272727     -0.000000000000      0.181818181818
     -0.181818181818     -0.000000000000      0.181818181818
     -0.090909090909     -0.000000000000      0.181818181818
      0.000000000000      0.090909090909      0.181818181818
      0.090909090909      0.090909090909      0.181818181818
      0.181818181818      0.090909090909      0.181818181818
      0.272727272727      0.090909090909      0.181818181818
      0.363636363636      0.090909090909      0.181818181818
      0.454545454545      0.090909090909      0.181818181818
     -0.454545454545      0.090909090909      0.181818181818
     -0.363636363636      0.090909090909      0.181818181818
     -0.272727272727      0.090909090909      0.181818181818
     -0.181818181818      0.090909090909      0.181818181818
     -0.090909090909      0.090909090909      0.181818181818
      0.000000000000      0.181818181818      0.181818181818
      0.090909090909      0.181818181818      0.181818181818
      0.181818181818      0.181818181818      0.181818181818
      0.272727272727      0.181818181818      0.181818181818
      0.363636363636      0.181818181818      0.181818181818
      0.454545454545      0.181818181818      0.181818181818
     -0.454545454545      0.181818181818      0.181818181818
     -0.363636363636      0.181818181818      0.181818181818
     -0.272727272727      0.181818181818      0.181818181818
     -0.181818181818      0.181818181818      0.181818181818
     -0.090909090909      0.181818181818      0.181818181818
      0.000000000000      0.272727272727      0.181818181818
      0.090909090909      0.272727272727      0.181818181818
      0.181818181818      0.272727272727      0.181818181818
      0.272727272727      0.272727272727      0.181818181818
      0.363636363636      0.272727272727      0.181818181818
      0.454545454545      0.272727272727      0.181818181818
     -0.454545454545      0.272727272727      0.181818181818
     -0.363636363636      0.272727272727      0.181818181818
     -0.272727272727      0.272727272727      0.181818181818
     -0.181818181818      0.272727272727      0.181818181818
     -0.090909090909      0.272727272727      0.181818181818
      0.000000000000      0.363636363636      0.181818181818
      0.090909090909      0.363636363636      0.181818181818
      0.181818181818      0.363636363636      0.181818181818
      0.272727272727      0.363636363636      0.181818181818
      0.363636363636      0.363636363636      0.181818181818
      0.454545454545      0.363636363636      0.181818181818
     -0.454545454545      0.363636363636      0.181818181818
     -0.363636363636      0.363636363636      0.181818181818
     -0.272727272727      0.363636363636      0.181818181818
     -0.181818181818      0.363636363636      0.181818181818
     -0.090909090909      0.363636363636      0.181818181818
      0.000000000000      0.454545454545      0.181818181818
      0.090909090909      0.454545454545      0.181818181818
      0.181818181818      0.454545454545      0.181818181818
      0.272727272727      0.454545454545      0.181818181818
      0.363636363636      0.454545454545      0.181818181818
      0.454545454545      0.454545454545      0.181818181818
     -0.454545454545      0.454545454545      0.181818181818
     -0.363636363636      0.454545454545      0.181818181818
     -0.272727272727      0.454545454545      0.181818181818
     -0.181818181818      0.454545454545      0.181818181818
     -0.090909090909      0.454545454545      0.181818181818
      0.000000000000     -0.454545454545      0.181818181818
      0.090909090909     -0.454545454545      0.181818181818
      0.181818181818     -0.454545454545      0.181818181818
      0.272727272727     -0.454545454545      0.181818181818
      0.363636363636     -0.454545454545      0.181818181818
      0.454545454545     -0.454545454545      0.181818181818
     -0.454545454545     -0.454545454545      0.181818181818
     -0.363636363636     -0.454545454545      0.181818181818
     -0.272727272727     -0.454545454545      0.181818181818
     -0.181818181818     -0.454545454545      0.181818181818
     -0.090909090909     -0.454545454545      0.181818181818
     -0.000000000000     -0.363636363636      0.181818181818
      0.090909090909     -0.363636363636      0.181818181818
      0.181818181818     -0.363636363636      0.181818181818
      0.272727272727     -0.363636363636      0.181818181818
      0.363636363636     -0.363636363636      0.181818181818
      0.454545454545     -0.363636363636      0.181818181818
     -0.454545454545     -0.363636363636      0.181818181818
     -0.363636363636     -0.363636363636      0.181818181818
     -0.272727272727     -0.363636363636      0.181818181818
     -0.181818181818     -0.363636363636      0.181818181818
     -0.090909090909     -0.363636363636      0.181818181818
     -0.000000000000     -0.272727272727      0.181818181818
      0.090909090909     -0.272727272727      0.181818181818
      0.181818181818     -0.272727272727      0.181818181818
      0.272727272727     -0.272727272727      0.181818181818
      0.363636363636     -0.272727272727      0.181818181818
      0.454545454545     -0.272727272727      0.181818181818
     -0.454545454545     -0.272727272727      0.181818181818
     -0.363636363636     -0.272727272727      0.181818181818
     -0.272727272727     -0.272727272727      0.181818181818
     -0.181818181818     -0.272727272727      0.181818181818
     -0.090909090909     -0.272727272727      0.181818181818
     -0.000000000000     -0.181818181818      0.181818181818
      0.090909090909     -0.181818181818      0.181818181818
      0.181818181818     -0.181818181818      0.181818181818
      0.272727272727     -0.181818181818      0.181818181818
      0.363636363636     -0.181818181818      0.181818181818
      0.454545454545     -0.181818181818      0.181818181818
     -0.454545454545     -0.181818181818      0.181818181818
     -0.363636363636     -0.181818181818      0.181818181818
     -0.272727272727     -0.181818181818      0.181818181818
     -0.181818181818     -0.181818181818      0.181818181818
     -0.090909090909     -0.181818181818      0.181818181818
     -0.000000000000     -0.090909090909      0.181818181818
      0.090909090909     -0.090909090909      0.181818181818
      0.181818181818     -0.090909090909      0.181818181818
      0.272727272727     -0.090909090909      0.181818181818
      0.363636363636     -0.090909090909      0.181818181818
      0.454545454545     -0.090909090909      0.181818181818
     -0.454545454545     -0.090909090909      0.181818181818
     -0.363636363636     -0.090909090909      0.181818181818
     -0.272727272727     -0.090909090909      0.181818181818
     -0.181818181818     -0.090909090909      0.181818181818
     -0.090909090909     -0.090909090909      0.181818181818
     -0.000000000000      0.000000000000      0.272727272727
      0.090909090909      0.000000000000      0.272727272727
      0.181818181818      0.000000000000      0.272727272727
      0.272727272727      0.000000000000      0.272727272727
      0.363636363636      0.000000000000      0.272727272727
      0.454545454545      0.000000000000      0.272727272727
     -0.454545454545     -0.000000000000      0.272727272727
     -0.363636363636      0.000000000000      0.272727272727
     -0.272727272727     -0.000000000000      0.272727272727
     -0.181818181818     -0.000000000000      0.272727272727
     -0.090909090909     -0.000000000000      0.272727272727
     -0.000000000000      0.090909090909      0.272727272727
      0.090909090909      0.090909090909      0.272727272727
      0.181818181818      0.090909090909      0.272727272727
      0.272727272727      0.090909090909      0.272727272727
      0.363636363636      0.090909090909      0.272727272727
      0.454545454545      0.090909090909      0.272727272727
     -0.454545454545      0.090909090909      0.272727272727
     -0.363636363636      0.090909090909      0.272727272727
     -0.272727272727      0.090909090909      0.272727272727
     -0.181818181818      0.090909090909      0.272727272727
     -0.090909090909      0.090909090909      0.272727272727
      0.000000000000      0.181818181818      0.272727272727
      0.090909090909      0.181818181818      0.272727272727
      0.181818181818      0.181818181818      0.272727272727
      0.272727272727      0.181818181818      0.272727272727
      0.363636363636      0.181818181818      0.272727272727
      0.454545454545      0.181818181818      0.272727272727
     -0.454545454545      0.181818181818      0.272727272727
     -0.363636363636      0.181818181818      0.272727272727
     -0.272727272727      0.181818181818      0.272727272727
     -0.181818181818      0.181818181818      0.272727272727
     -0.090909090909      0.181818181818      0.272727272727
      0.000000000000      0.272727272727      0.272727272727
      0.090909090909      0.272727272727      0.272727272727
      0.181818181818      0.272727272727      0.272727272727
      0.272727272727      0.272727272727      0.272727272727
      0.363636363636      0.272727272727      0.272727272727
      0.454545454545      0.272727272727      0.272727272727
     -0.454545454545      0.272727272727      0.272727272727
     -0.363636363636      0.272727272727      0.272727272727
     -0.272727272727      0.272727272727      0.272727272727
     -0.181818181818      0.272727272727      0.272727272727
     -0.090909090909      0.272727272727      0.272727272727
      0.000000000000      0.363636363636      0.272727272727
      0.090909090909      0.363636363636      0.272727272727
      0.181818181818      0.363636363636      0.272727272727
      0.272727272727      0.363636363636      0.272727272727
      0.363636363636      0.363636363636      0.272727272727
      0.454545454545      0.363636363636      0.272727272727
     -0.454545454545      0.363636363636      0.272727272727
     -0.363636363636      0.363636363636      0.272727272727
     -0.272727272727      0.363636363636      0.272727272727
     -0.181818181818      0.363636363636      0.272727272727
     -0.090909090909      0.363636363636      0.272727272727
      0.000000000000      0.454545454545      0.272727272727
      0.090909090909      0.454545454545      0.272727272727
      0.181818181818      0.454545454545      0.272727272727
      0.272727272727      0.454545454545      0.272727272727
      0.363636363636      0.454545454545      0.272727272727
      0.454545454545      0.454545454545      0.272727272727
     -0.454545454545      0.454545454545      0.272727272727
     -0.363636363636      0.454545454545      0.272727272727
     -0.272727272727      0.454545454545      0.272727272727
     -0.181818181818      0.454545454545      0.272727272727
     -0.090909090909      0.454545454545      0.272727272727
     -0.000000000000     -0.454545454545      0.272727272727
      0.090909090909     -0.454545454545      0.272727272727
      0.181818181818     -0.454545454545      0.272727272727
      0.272727272727     -0.454545454545      0.272727272727
      0.363636363636     -0.454545454545      0.272727272727
      0.454545454545     -0.454545454545      0.272727272727
     -0.454545454545     -0.454545454545      0.272727272727
     -0.363636363636     -0.454545454545      0.272727272727
     -0.272727272727     -0.454545454545      0.272727272727
     -0.181818181818     -0.454545454545      0.272727272727
     -0.090909090909     -0.454545454545      0.272727272727
      0.000000000000     -0.363636363636      0.272727272727
      0.090909090909     -0.363636363636      0.272727272727
      0.181818181818     -0.363636363636      0.272727272727
      0.272727272727     -0.363636363636      0.272727272727
      0.363636363636     -0.363636363636      0.272727272727
      0.454545454545     -0.363636363636      0.272727272727
     -0.454545454545     -0.363636363636      0.272727272727
     -0.363636363636     -0.363636363636      0.272727272727
     -0.272727272727     -0.363636363636      0.272727272727
     -0.181818181818     -0.363636363636      0.272727272727
     -0.090909090909     -0.363636363636      0.272727272727
     -0.000000000000     -0.272727272727      0.272727272727
      0.090909090909     -0.272727272727      0.272727272727
      0.181818181818     -0.272727272727      0.272727272727
      0.272727272727     -0.272727272727      0.272727272727
      0.363636363636     -0.272727272727      0.272727272727
      0.454545454545     -0.272727272727      0.272727272727
     -0.454545454545     -0.272727272727      0.272727272727
     -0.363636363636     -0.272727272727      0.272727272727
     -0.272727272727     -0.272727272727      0.272727272727
     -0.181818181818     -0.272727272727      0.272727272727
     -0.090909090909     -0.272727272727      0.272727272727
     -0.000000000000     -0.181818181818      0.272727272727
      0.090909090909     -0.181818181818      0.272727272727