#restart = plot
write_hr = TRUE
write_xyz=true
write_rmn=true
num_bands =   64   #num_bands = NBANDS of INCAR >= num_wann
num_wann =    22   #  number of wannier bands  
dis_win_min   = -10
dis_win_max   = 8
dis_froz_min  = -8.508
dis_froz_max  =  2.493
dis_num_iter  =  2000
num_iter      =  2000
num_print_cycles = 20
guiding_centres = TRUE
spinors = .true.
MP_GRID = 16 16 1

dis_conv_tol      = 1e-8  !! The convergence tolerance for finding gauge invariant term
dis_conv_window   = 4      !! The number of iterations over which convergence of gauge invariant term is assessed. default is 3
kmesh_tol = 0.0001
# projections   
begin projections
Mo:d
S:p
end projections

bands_num_points=100
bands_plot        = true
bands_plot_format = gnuplot xmgr
begin kpoint_path
M   0.5000000000   0.0000000000   0.0000000000   K  0.3333333333   0.3333333333   0.0000000000
K   0.3333333333   0.3333333333   0.0000000000   G  0.0000000000   0.0000000000   0.0000000000
G   0.0000000000   0.0000000000   0.0000000000   A  0.6666666667  -0.3333333333   0.0000000000
A   0.6666666667  -0.3333333333   0.0000000000   M  0.5000000000   0.0000000000   0.0000000000
end kpoint_path

begin unit_cell_cart
     3.1848355    -0.0000002     0.0000822
    -1.5924176     2.7581487     0.0000355
     0.0006072     0.0006533    23.2094384
end unit_cell_cart

begin atoms_cart
Mo       1.5927214     0.9197095    11.6047858
S        0.0002631     1.8390489    13.1669083
S        0.0003443     1.8391360    10.0426322
end atoms_cart

begin kpoints
      0.000000000000      0.000000000000      0.000000000000
      0.062500000000      0.000000000000     -0.000000000000
      0.125000000000      0.000000000000     -0.000000000000
      0.187500000000      0.000000000000     -0.000000000000
      0.250000000000      0.000000000000     -0.000000000000
      0.312500000000      0.000000000000     -0.000000000000
      0.375000000000      0.000000000000     -0.000000000000
      0.437500000000      0.000000000000     -0.000000000000
      0.500000000000      0.000000000000     -0.000000000000
     -0.437500000000     -0.000000000000      0.000000000000
     -0.375000000000     -0.000000000000      0.000000000000
     -0.312500000000     -0.000000000000      0.000000000000
     -0.250000000000     -0.000000000000      0.000000000000
     -0.187500000000     -0.000000000000      0.000000000000
     -0.125000000000     -0.000000000000      0.000000000000
     -0.062500000000     -0.000000000000      0.000000000000
     -0.000000000000      0.062500000000      0.000000000000
      0.062500000000      0.062500000000     -0.000000000000
      0.125000000000      0.062500000000     -0.000000000000
      0.187500000000      0.062500000000     -0.000000000000
      0.250000000000      0.062500000000     -0.000000000000
      0.312500000000      0.062500000000     -0.000000000000
      0.375000000000      0.062500000000     -0.000000000000
      0.437500000000      0.062500000000     -0.000000000000
      0.500000000000      0.062500000000      0.000000000000
     -0.437500000000      0.062500000000      0.000000000000
     -0.375000000000      0.062500000000      0.000000000000
     -0.312500000000      0.062500000000      0.000000000000
     -0.250000000000      0.062500000000      0.000000000000
     -0.187500000000      0.062500000000      0.000000000000
     -0.125000000000      0.062500000000      0.000000000000
     -0.062500000000      0.062500000000      0.000000000000
     -0.000000000000      0.125000000000      0.000000000000
      0.062500000000      0.125000000000     -0.000000000000
      0.125000000000      0.125000000000     -0.000000000000
      0.187500000000      0.125000000000     -0.000000000000
      0.250000000000      0.125000000000     -0.000000000000
      0.312500000000      0.125000000000     -0.000000000000
      0.375000000000      0.125000000000     -0.000000000000
      0.437500000000      0.125000000000     -0.000000000000
      0.500000000000      0.125000000000     -0.000000000000
     -0.437500000000      0.125000000000      0.000000000000
     -0.375000000000      0.125000000000      0.000000000000
     -0.312500000000      0.125000000000      0.000000000000
     -0.250000000000      0.125000000000      0.000000000000
     -0.187500000000      0.125000000000      0.000000000000
     -0.125000000000      0.125000000000      0.000000000000
     -0.062500000000      0.125000000000      0.000000000000
     -0.000000000000      0.187500000000      0.000000000000
      0.062500000000      0.187500000000      0.000000000000
      0.125000000000      0.187500000000     -0.000000000000
      0.187500000000      0.187500000000     -0.000000000000
      0.250000000000      0.187500000000     -0.000000000000
      0.312500000000      0.187500000000     -0.000000000000
      0.375000000000      0.187500000000      0.000000000000
      0.437500000000      0.187500000000     -0.000000000000
      0.500000000000      0.187500000000     -0.000000000000
     -0.437500000000      0.187500000000      0.000000000000
     -0.375000000000      0.187500000000      0.000000000000
     -0.312500000000      0.187500000000      0.000000000000
     -0.250000000000      0.187500000000      0.000000000000
     -0.187500000000      0.187500000000      0.000000000000
     -0.125000000000      0.187500000000      0.000000000000
     -0.062500000000      0.187500000000     -0.000000000000
     -0.000000000000      0.250000000000      0.000000000000
      0.062500000000      0.250000000000     -0.000000000000
      0.125000000000      0.250000000000     -0.000000000000
      0.187500000000      0.250000000000     -0.000000000000
      0.250000000000      0.250000000000     -0.000000000000
      0.312500000000      0.250000000000     -0.000000000000
      0.375000000000      0.250000000000     -0.000000000000
      0.437500000000      0.250000000000     -0.000000000000
      0.500000000000      0.250000000000     -0.000000000000
     -0.437500000000      0.250000000000      0.000000000000
     -0.375000000000      0.250000000000      0.000000000000
     -0.312500000000      0.250000000000      0.000000000000
     -0.250000000000      0.250000000000      0.000000000000
     -0.187500000000      0.250000000000      0.000000000000
     -0.125000000000      0.250000000000      0.000000000000
     -0.062500000000      0.250000000000     -0.000000000000
     -0.000000000000      0.312500000000     -0.000000000000
      0.062500000000      0.312500000000     -0.000000000000
      0.125000000000      0.312500000000     -0.000000000000
      0.187500000000      0.312500000000      0.000000000000
      0.250000000000      0.312500000000     -0.000000000000
      0.312500000000      0.312500000000     -0.000000000000
      0.375000000000      0.312500000000     -0.000000000000
      0.437500000000      0.312500000000     -0.000000000000
      0.500000000000      0.312500000000     -0.000000000000
     -0.437500000000      0.312500000000      0.000000000000
     -0.375000000000      0.312500000000      0.000000000000
     -0.312500000000      0.312500000000      0.000000000000
     -0.250000000000      0.312500000000      0.000000000000
     -0.187500000000      0.312500000000     -0.000000000000
     -0.125000000000      0.312500000000     -0.000000000000
     -0.062500000000      0.312500000000     -0.000000000000
     -0.000000000000      0.375000000000      0.000000000000
      0.062500000000      0.375000000000      0.000000000000
      0.125000000000      0.375000000000      0.000000000000
      0.187500000000      0.375000000000      0.000000000000
      0.250000000000      0.375000000000     -0.000000000000
      0.312500000000      0.375000000000     -0.000000000000
      0.375000000000      0.375000000000     -0.000000000000
      0.437500000000      0.375000000000     -0.000000000000
      0.500000000000      0.375000000000     -0.000000000000
     -0.437500000000      0.375000000000      0.000000000000
     -0.375000000000      0.375000000000      0.000000000000
     -0.312500000000      0.375000000000      0.000000000000
     -0.250000000000      0.375000000000      0.000000000000
     -0.187500000000      0.375000000000      0.000000000000
     -0.125000000000      0.375000000000     -0.000000000000
     -0.062500000000      0.375000000000     -0.000000000000
     -0.000000000000      0.437500000000     -0.000000000000
      0.062500000000      0.437500000000     -0.000000000000
      0.125000000000      0.437500000000      0.000000000000
      0.187500000000      0.437500000000      0.000000000000
      0.250000000000      0.437500000000     -0.000000000000
      0.312500000000      0.437500000000      0.000000000000
      0.375000000000      0.437500000000     -0.000000000000
      0.437500000000      0.437500000000     -0.000000000000
      0.500000000000      0.437500000000     -0.000000000000
     -0.437500000000      0.437500000000      0.000000000000
     -0.375000000000      0.437500000000      0.000000000000
     -0.312500000000      0.437500000000      0.000000000000
     -0.250000000000      0.437500000000      0.000000000000
     -0.187500000000      0.437500000000      0.000000000000
     -0.125000000000      0.437500000000     -0.000000000000
     -0.062500000000      0.437500000000     -0.000000000000
     -0.000000000000      0.500000000000      0.000000000000
      0.062500000000      0.500000000000     -0.000000000000
      0.125000000000      0.500000000000     -0.000000000000
      0.187500000000      0.500000000000      0.000000000000
      0.250000000000      0.500000000000     -0.000000000000
      0.312500000000      0.500000000000      0.000000000000
      0.375000000000      0.500000000000     -0.000000000000
      0.437500000000      0.500000000000     -0.000000000000
      0.500000000000      0.500000000000     -0.000000000000
     -0.437500000000      0.500000000000      0.000000000000
     -0.375000000000      0.500000000000      0.000000000000
     -0.312500000000      0.500000000000      0.000000000000
     -0.250000000000      0.500000000000      0.000000000000
     -0.187500000000      0.500000000000     -0.000000000000
     -0.125000000000      0.500000000000     -0.000000000000
     -0.062500000000      0.500000000000     -0.000000000000
      0.000000000000     -0.437500000000      0.000000000000
      0.062500000000     -0.437500000000      0.000000000000
      0.125000000000     -0.437500000000      0.000000000000
      0.187500000000     -0.437500000000      0.000000000000
      0.250000000000     -0.437500000000     -0.000000000000
      0.312500000000     -0.437500000000     -0.000000000000
      0.375000000000     -0.437500000000     -0.000000000000
      0.437500000000     -0.437500000000     -0.000000000000
      0.500000000000     -0.437500000000     -0.000000000000
     -0.437500000000     -0.437500000000      0.000000000000
     -0.375000000000     -0.437500000000      0.000000000000
     -0.312500000000     -0.437500000000      0.000000000000
     -0.250000000000     -0.437500000000      0.000000000000
     -0.187500000000     -0.437500000000      0.000000000000
     -0.125000000000     -0.437500000000     -0.000000000000
     -0.062500000000     -0.437500000000      0.000000000000
      0.000000000000     -0.375000000000     -0.000000000000
      0.062500000000     -0.375000000000      0.000000000000
      0.125000000000     -0.375000000000      0.000000000000
      0.187500000000     -0.375000000000     -0.000000000000
      0.250000000000     -0.375000000000     -0.000000000000
      0.312500000000     -0.375000000000     -0.000000000000
      0.375000000000     -0.375000000000     -0.000000000000
      0.437500000000     -0.375000000000     -0.000000000000
      0.500000000000     -0.375000000000     -0.000000000000
     -0.437500000000     -0.375000000000      0.000000000000
     -0.375000000000     -0.375000000000      0.000000000000
     -0.312500000000     -0.375000000000      0.000000000000
     -0.250000000000     -0.375000000000      0.000000000000
     -0.187500000000     -0.375000000000      0.000000000000
     -0.125000000000     -0.375000000000      0.000000000000
     -0.062500000000     -0.375000000000     -0.000000000000
      0.000000000000     -0.312500000000      0.000000000000
      0.062500000000     -0.312500000000      0.000000000000
      0.125000000000     -0.312500000000      0.000000000000
      0.187500000000     -0.312500000000      0.000000000000
      0.250000000000     -0.312500000000     -0.000000000000
      0.312500000000     -0.312500000000     -0.000000000000
      0.375000000000     -0.312500000000     -0.000000000000
      0.437500000000     -0.312500000000      0.000000000000
      0.500000000000     -0.312500000000     -0.000000000000
     -0.437500000000     -0.312500000000      0.000000000000
     -0.375000000000     -0.312500000000      0.000000000000
     -0.312500000000     -0.312500000000      0.000000000000
     -0.250000000000     -0.312500000000      0.000000000000
     -0.187500000000     -0.312500000000      0.000000000000
     -0.125000000000     -0.312500000000      0.000000000000
     -0.062500000000     -0.312500000000      0.000000000000
      0.000000000000     -0.250000000000      0.000000000000
      0.062500000000     -0.250000000000      0.000000000000
      0.125000000000     -0.250000000000      0.000000000000
      0.187500000000     -0.250000000000     -0.000000000000
      0.250000000000     -0.250000000000     -0.000000000000
      0.312500000000     -0.250000000000      0.000000000000
      0.375000000000     -0.250000000000     -0.000000000000
      0.437500000000     -0.250000000000     -0.000000000000
      0.500000000000     -0.250000000000     -0.000000000000
     -0.437500000000     -0.250000000000      0.000000000000
     -0.375000000000     -0.250000000000      0.000000000000
     -0.312500000000     -0.250000000000      0.000000000000
     -0.250000000000     -0.250000000000      0.000000000000
     -0.187500000000     -0.250000000000      0.000000000000
     -0.125000000000     -0.250000000000      0.000000000000
     -0.062500000000     -0.250000000000      0.000000000000
      0.000000000000     -0.187500000000     -0.000000000000
      0.062500000000     -0.187500000000      0.000000000000
      0.125000000000     -0.187500000000     -0.000000000000
      0.187500000000     -0.187500000000     -0.000000000000
      0.250000000000     -0.187500000000     -0.000000000000
      0.312500000000     -0.187500000000     -0.000000000000
      0.375000000000     -0.187500000000     -0.000000000000
      0.437500000000     -0.187500000000     -0.000000000000
      0.500000000000     -0.187500000000     -0.000000000000
     -0.437500000000     -0.187500000000      0.000000000000
     -0.375000000000     -0.187500000000      0.000000000000
     -0.312500000000     -0.187500000000      0.000000000000
     -0.250000000000     -0.187500000000      0.000000000000
     -0.187500000000     -0.187500000000      0.000000000000
     -0.125000000000     -0.187500000000      0.000000000000
     -0.062500000000     -0.187500000000      0.000000000000
      0.000000000000     -0.125000000000      0.000000000000
      0.062500000000     -0.125000000000      0.000000000000
      0.125000000000     -0.125000000000     -0.000000000000
      0.187500000000     -0.125000000000     -0.000000000000
      0.250000000000     -0.125000000000     -0.000000000000
      0.312500000000     -0.125000000000     -0.000000000000
      0.375000000000     -0.125000000000     -0.000000000000
      0.437500000000     -0.125000000000      0.000000000000
      0.500000000000     -0.125000000000     -0.000000000000
     -0.437500000000     -0.125000000000      0.000000000000
     -0.375000000000     -0.125000000000      0.000000000000
     -0.312500000000     -0.125000000000      0.000000000000
     -0.250000000000     -0.125000000000      0.000000000000
     -0.187500000000     -0.125000000000      0.000000000000
     -0.125000000000     -0.125000000000      0.000000000000
     -0.062500000000     -0.125000000000      0.000000000000
      0.000000000000     -0.062500000000      0.000000000000
      0.062500000000     -0.062500000000     -0.000000000000
      0.125000000000     -0.062500000000     -0.000000000000
      0.187500000000     -0.062500000000     -0.000000000000
      0.250000000000     -0.062500000000     -0.000000000000
      0.312500000000     -0.062500000000     -0.000000000000
      0.375000000000     -0.062500000000     -0.000000000000
      0.437500000000     -0.062500000000     -0.000000000000
      0.500000000000     -0.062500000000     -0.000000000000
     -0.437500000000     -0.062500000000      0.000000000000
     -0.375000000000     -0.062500000000      0.000000000000
     -0.312500000000     -0.062500000000      0.000000000000
     -0.250000000000     -0.062500000000      0.000000000000
     -0.187500000000     -0.062500000000      0.000000000000
     -0.125000000000     -0.062500000000      0.000000000000
     -0.062500000000     -0.062500000000      0.000000000000
end kpoints
